40 780
1 2 40
1 3 15
1 4 109
1 5 72
1 6 22
1 7 43
1 8 82
1 9 75
1 10 104
1 11 7
1 12 34
1 13 49
1 14 95
1 15 75
1 16 85
1 17 47
1 18 63
1 19 31
1 20 90
1 21 20
1 22 116
1 23 37
1 24 39
1 25 67
1 26 102
1 27 4
1 28 42
1 29 107
1 30 51
1 31 103
1 32 38
1 33 106
1 34 33
1 35 58
1 36 67
1 37 69
1 38 88
1 39 68
1 40 46
2 3 70
2 4 95
2 5 83
2 6 31
2 7 66
2 8 80
2 9 52
2 10 110
2 11 76
2 12 50
2 13 4
2 14 90
2 15 63
2 16 79
2 17 49
2 18 39
2 19 46
2 20 8
2 21 50
2 22 109
2 23 15
2 24 105
2 25 109
2 26 8
2 27 119
2 28 17
2 29 22
2 30 117
2 31 73
2 32 57
2 33 105
2 34 110
2 35 90
2 36 62
2 37 83
2 38 96
2 39 43
2 40 32
3 4 26
3 5 114
3 6 8
3 7 76
3 8 10
3 9 40
3 10 34
3 11 60
3 12 9
3 13 118
3 14 101
3 15 70
3 16 86
3 17 70
3 18 19
3 19 56
3 20 82
3 21 1
3 22 68
3 23 40
3 24 81
3 25 61
3 26 70
3 27 101
3 28 97
3 29 18
3 30 84
3 31 90
3 32 87
3 33 22
3 34 43
3 35 52
3 36 101
3 37 74
3 38 72
3 39 90
3 40 99
4 5 91
4 6 96
4 7 16
4 8 117
4 9 55
4 10 21
4 11 43
4 12 93
4 13 80
4 14 40
4 15 70
4 16 74
4 17 37
4 18 59
4 19 17
4 20 15
4 21 30
4 22 77
4 23 26
4 24 39
4 25 107
4 26 63
4 27 111
4 28 20
4 29 115
4 30 22
4 31 59
4 32 49
4 33 100
4 34 27
4 35 0
4 36 62
4 37 40
4 38 58
4 39 117
4 40 92
5 6 36
5 7 63
5 8 75
5 9 110
5 10 50
5 11 73
5 12 7
5 13 49
5 14 82
5 15 1
5 16 79
5 17 91
5 18 110
5 19 96
5 20 103
5 21 49
5 22 40
5 23 108
5 24 46
5 25 59
5 26 73
5 27 107
5 28 78
5 29 94
5 30 110
5 31 95
5 32 32
5 33 119
5 34 16
5 35 21
5 36 43
5 37 58
5 38 98
5 39 21
5 40 106
6 7 49
6 8 63
6 9 83
6 10 92
6 11 51
6 12 97
6 13 8
6 14 107
6 15 86
6 16 88
6 17 111
6 18 11
6 19 1
6 20 43
6 21 69
6 22 59
6 23 63
6 24 7
6 25 80
6 26 105
6 27 92
6 28 79
6 29 17
6 30 37
6 31 57
6 32 31
6 33 34
6 34 80
6 35 42
6 36 48
6 37 36
6 38 22
6 39 19
6 40 95
7 8 17
7 9 45
7 10 72
7 11 37
7 12 9
7 13 21
7 14 36
7 15 114
7 16 39
7 17 104
7 18 103
7 19 83
7 20 90
7 21 36
7 22 40
7 23 102
7 24 19
7 25 56
7 26 8
7 27 78
7 28 117
7 29 49
7 30 51
7 31 115
7 32 27
7 33 67
7 34 79
7 35 2
7 36 22
7 37 5
7 38 5
7 39 82
7 40 101
8 9 93
8 10 12
8 11 92
8 12 6
8 13 113
8 14 44
8 15 5
8 16 16
8 17 69
8 18 52
8 19 62
8 20 26
8 21 83
8 22 103
8 23 101
8 24 25
8 25 36
8 26 15
8 27 85
8 28 18
8 29 22
8 30 93
8 31 14
8 32 64
8 33 69
8 34 87
8 35 33
8 36 102
8 37 71
8 38 96
8 39 113
8 40 82
9 10 93
9 11 79
9 12 109
9 13 28
9 14 20
9 15 90
9 16 80
9 17 6
9 18 38
9 19 24
9 20 6
9 21 43
9 22 57
9 23 21
9 24 113
9 25 85
9 26 105
9 27 36
9 28 105
9 29 63
9 30 104
9 31 83
9 32 4
9 33 54
9 34 34
9 35 76
9 36 79
9 37 111
9 38 116
9 39 39
9 40 62
10 11 85
10 12 1
10 13 51
10 14 45
10 15 28
10 16 23
10 17 36
10 18 117
10 19 81
10 20 82
10 21 92
10 22 91
10 23 115
10 24 106
10 25 38
10 26 74
10 27 26
10 28 62
10 29 109
10 30 33
10 31 2
10 32 59
10 33 57
10 34 38
10 35 96
10 36 85
10 37 76
10 38 19
10 39 53
10 40 82
11 12 8
11 13 11
11 14 41
11 15 58
11 16 23
11 17 27
11 18 58
11 19 115
11 20 60
11 21 16
11 22 4
11 23 47
11 24 76
11 25 118
11 26 61
11 27 98
11 28 23
11 29 105
11 30 19
11 31 97
11 32 31
11 33 81
11 34 89
11 35 73
11 36 59
11 37 0
11 38 8
11 39 112
11 40 10
12 13 8
12 14 101
12 15 99
12 16 117
12 17 104
12 18 46
12 19 35
12 20 78
12 21 79
12 22 54
12 23 49
12 24 108
12 25 6
12 26 97
12 27 98
12 28 95
12 29 49
12 30 29
12 31 34
12 32 54
12 33 118
12 34 59
12 35 97
12 36 99
12 37 13
12 38 12
12 39 47
12 40 83
13 14 109
13 15 58
13 16 44
13 17 66
13 18 31
13 19 35
13 20 50
13 21 90
13 22 10
13 23 91
13 24 42
13 25 43
13 26 35
13 27 42
13 28 3
13 29 93
13 30 64
13 31 108
13 32 5
13 33 10
13 34 11
13 35 94
13 36 106
13 37 81
13 38 82
13 39 65
13 40 86
14 15 34
14 16 14
14 17 110
14 18 113
14 19 108
14 20 99
14 21 110
14 22 111
14 23 86
14 24 29
14 25 19
14 26 41
14 27 64
14 28 94
14 29 100
14 30 98
14 31 11
14 32 119
14 33 21
14 34 21
14 35 27
14 36 83
14 37 73
14 38 17
14 39 40
14 40 79
15 16 111
15 17 10
15 18 49
15 19 68
15 20 102
15 21 13
15 22 30
15 23 82
15 24 6
15 25 87
15 26 21
15 27 90
15 28 80
15 29 17
15 30 37
15 31 70
15 32 57
15 33 29
15 34 47
15 35 56
15 36 34
15 37 22
15 38 107
15 39 0
15 40 22
16 17 26
16 18 0
16 19 68
16 20 51
16 21 51
16 22 23
16 23 47
16 24 63
16 25 28
16 26 80
16 27 111
16 28 73
16 29 114
16 30 46
16 31 62
16 32 114
16 33 106
16 34 115
16 35 117
16 36 54
16 37 80
16 38 54
16 39 48
16 40 51
17 18 7
17 19 51
17 20 104
17 21 63
17 22 64
17 23 115
17 24 88
17 25 117
17 26 119
17 27 53
17 28 119
17 29 116
17 30 49
17 31 75
17 32 47
17 33 16
17 34 38
17 35 46
17 36 119
17 37 59
17 38 87
17 39 88
17 40 52
18 19 25
18 20 2
18 21 71
18 22 37
18 23 9
18 24 10
18 25 83
18 26 54
18 27 12
18 28 95
18 29 4
18 30 64
18 31 95
18 32 102
18 33 26
18 34 74
18 35 78
18 36 113
18 37 104
18 38 14
18 39 69
18 40 113
19 20 16
19 21 91
19 22 5
19 23 96
19 24 73
19 25 8
19 26 114
19 27 14
19 28 118
19 29 76
19 30 91
19 31 41
19 32 93
19 33 47
19 34 73
19 35 40
19 36 114
19 37 116
19 38 76
19 39 97
19 40 81
20 21 66
20 22 110
20 23 98
20 24 60
20 25 86
20 26 94
20 27 119
20 28 105
20 29 11
20 30 88
20 31 15
20 32 83
20 33 91
20 34 25
20 35 100
20 36 45
20 37 72
20 38 36
20 39 32
20 40 96
21 22 91
21 23 4
21 24 12
21 25 23
21 26 5
21 27 89
21 28 114
21 29 94
21 30 90
21 31 41
21 32 22
21 33 96
21 34 115
21 35 59
21 36 27
21 37 38
21 38 24
21 39 50
21 40 26
22 23 92
22 24 31
22 25 113
22 26 96
22 27 39
22 28 43
22 29 45
22 30 5
22 31 7
22 32 95
22 33 6
22 34 73
22 35 83
22 36 16
22 37 20
22 38 73
22 39 112
22 40 114
23 24 27
23 25 80
23 26 107
23 27 74
23 28 31
23 29 76
23 30 110
23 31 9
23 32 20
23 33 103
23 34 116
23 35 22
23 36 5
23 37 9
23 38 21
23 39 28
23 40 117
24 25 41
24 26 50
24 27 118
24 28 111
24 29 46
24 30 106
24 31 82
24 32 52
24 33 96
24 34 73
24 35 104
24 36 66
24 37 65
24 38 102
24 39 17
24 40 25
25 26 35
25 27 25
25 28 98
25 29 66
25 30 106
25 31 8
25 32 66
25 33 53
25 34 18
25 35 86
25 36 38
25 37 5
25 38 32
25 39 85
25 40 79
26 27 10
26 28 58
26 29 3
26 30 10
26 31 41
26 32 112
26 33 23
26 34 86
26 35 44
26 36 31
26 37 106
26 38 37
26 39 7
26 40 96
27 28 60
27 29 79
27 30 17
27 31 105
27 32 11
27 33 97
27 34 27
27 35 6
27 36 112
27 37 114
27 38 17
27 39 31
27 40 6
28 29 5
28 30 12
28 31 69
28 32 94
28 33 117
28 34 24
28 35 9
28 36 106
28 37 109
28 38 33
28 39 52
28 40 33
29 30 101
29 31 45
29 32 58
29 33 62
29 34 89
29 35 105
29 36 5
29 37 51
29 38 43
29 39 12
29 40 116
30 31 93
30 32 64
30 33 3
30 34 69
30 35 7
30 36 38
30 37 97
30 38 2
30 39 64
30 40 29
31 32 77
31 33 78
31 34 76
31 35 33
31 36 48
31 37 113
31 38 117
31 39 52
31 40 50
32 33 72
32 34 94
32 35 65
32 36 41
32 37 40
32 38 86
32 39 61
32 40 6
33 34 36
33 35 13
33 36 45
33 37 2
33 38 62
33 39 2
33 40 3
34 35 94
34 36 10
34 37 63
34 38 23
34 39 116
34 40 83
35 36 16
35 37 78
35 38 62
35 39 34
35 40 28
36 37 17
36 38 69
36 39 82
36 40 66
37 38 32
37 39 115
37 40 60
38 39 75
38 40 5
39 40 97
